c gen_rsets
c NSETS 3
c PERSET 8
c HARDNESS 2
p cnf 24 54
-1 5 0
1 6 0
-1 7 0
1 -8 0
-2 5 0
-2 -6 0
2 -7 0
-2 -8 0
3 5 0
3 6 0
3 -7 0
-3 -8 0
-4 -5 0
-4 -6 0
-4 -7 0
4 8 0
9 13 0
-9 14 0
9 15 0
9 16 0
-10 13 0
-10 14 0
10 15 0
10 16 0
11 13 0
11 -14 0
11 15 0
-11 16 0
12 13 0
12 14 0
-12 -15 0
12 16 0
-17 21 0
17 -22 0
-17 23 0
-17 24 0
-18 -21 0
18 22 0
-18 23 0
-18 -24 0
-19 -21 0
-19 22 0
-19 -23 0
19 24 0
-20 21 0
20 22 0
-20 23 0
20 24 0
19 -7 0
17 14 0
-12 24 0
4 -21 0
-2 -13 0
-10 -24 0
